Instance name : bar-n100-2
Authors       : Pix
Date          : 2025
Reference     : Simplified Hybrid ACO + Pure Greedy
Solution
Route 1 : 32 22 12 62 42 92 26 76 17 67 9 59 33 83 13 63 48 82 98 46 39 96 89 72
Route 2 : 15 34 65 84 31 45 95 81 6 3 56 44 53 94 25 21 71 75
Route 3 : 27 77 19 69 40 90 18 68 16 66 43 23 93 8 58 41 91 2 73 52 14 64
Route 4 : 20 70 28 78 49 99 35 85 24 74
Route 5 : 37 29 79 30 87 80 36 86 1 51 50 47 97 4 100 54 38 88 7 57
Route 6 : 5 11 61 10 60 55
